NAME : portcgen-25-13
COMMENT : portcgen N=25, seed=13
TYPE : TSP
DIMENSION : 25
EDGE_WEIGHT_TYPE : EUC_2D
NODE_COORD_SECTION
1 174948 -130492
2 -162721 51194
3 206784 -164959
4 105916 209333
5 -101279 51226
6 110392 910448
7 200163 163742
8 -207900 -129665
9 253139 -177231
10 -90711 -233556
11 52102 -62272
12 -101332 -82098
13 -115869 51773
14 -277574 -121561
15 -138702 -81612
16 58064 -110085
17 247726 238661
18 36553 -150325
19 27157 59094
20 -171048 431357
21 -172342 -227939
22 -380671 253837
23 -266276 100533
24 -48606 -153903
25 -371439 143446
